(set-info :smt-lib-version 2.6)
(set-logic QF_S)
(set-info :source |
Generated by: Hung-En Wang, Tzung-Lin Tsai, Chun-Han Lin, Fang Yu, and Jie-Hong R. Jiang
Generated on: 2019-02-28
Generator: Stranger
Application: Security analysis of string manipulating web applications
Target solver: CVC4, Norn, Z3-str2
Publication:
Hung-En Wang, Tzung-Lin Tsai, Chun-Han Lin, Fang Yu, Jie-Hong R. Jiang:
String Analysis via Automata Manipulation with Logic Circuit Representation. CAV (1) 2016: 241-260.
|)
(set-info :license "https://creativecommons.org/licenses/by/4.0/")
(set-info :category "industrial")
(set-info :status unknown)

(declare-fun sigmaStar_0 () String)
(declare-fun literal_2 () String)
(declare-fun x_7 () String)
(declare-fun literal_3 () String)
(declare-fun x_6 () String)
(declare-fun literal_4 () String)
(declare-fun literal_5 () String)
(declare-fun x_12 () String)
(declare-fun sigmaStar_13 () String)
(declare-fun x_8 () String)
(declare-fun epsilon () String)
(declare-fun literal_11 () String)
(declare-fun x_15 () String)
(declare-fun literal_16 () String)
(declare-fun x_17 () String)
(declare-fun x_18 () String)
(declare-fun x_14 () String)
(declare-fun x_20 () String)
(declare-fun literal_19 () String)
(declare-fun x_22 () String)
(declare-fun literal_21 () String)
(declare-fun x_23 () String)
(declare-fun literal_24 () String)
(declare-fun x_26 () String)
(declare-fun x_27 () String)
(declare-fun literal_25 () String)
(declare-fun x_28 () String)
(declare-fun x_32 () String)
(declare-fun literal_33 () String)
(declare-fun x_34 () String)
(declare-fun x_31 () String)
(declare-fun x_35 () String)
(declare-fun x_36 () String)
(assert (= literal_2 ""))
(assert (= x_7 (str.++ literal_2 sigmaStar_0)))
(assert (= literal_3 "\u{3c}\u{74}\u{72}\u{3e}\u{0d}\u{0a}\u{3c}\u{74}\u{64}\u{20}\u{63}\u{6c}\u{61}\u{73}\u{73}\u{3d}\u{27}"))
(assert (= literal_4 "\u{74}\u{62}\u{6c}\u{32}"))
(assert (= literal_5 "\u{74}\u{62}\u{6c}\u{31}"))
(assert (or (= x_6 literal_4) (= x_6 literal_5)))
(assert (= x_12 (str.++ literal_3 x_6)))
(assert (= epsilon ""))
(assert (= x_8 epsilon))
(assert (= x_14 (str.replace x_8 "\u{2e}" "\u{20}")))
(assert (= literal_11 ""))
(assert (= x_15 (str.++ x_7 literal_11)))
(assert (= literal_16 "\u{3e}\u{3c}\u{73}\u{70}\u{61}\u{6e}\u{20}\u{74}\u{69}\u{74}\u{6c}\u{65}\u{3d}"))
(assert (= x_17 (str.++ x_12 literal_16)))
(assert (or (= x_18 x_15) (= x_18 x_14)))
(assert (= x_20 (str.++ x_17 x_18)))
(assert (= literal_19 "\u{3c}\u{2f}\u{73}\u{70}\u{61}\u{6e}\u{3e}\u{3c}\u{2f}\u{74}\u{64}\u{3e}\u{0d}\u{0a}\u{3c}\u{74}\u{64}\u{20}\u{61}\u{6c}\u{69}\u{67}\u{6e}\u{3d}\u{27}\u{63}\u{65}\u{6e}\u{74}\u{65}\u{72}\u{27}\u{20}\u{77}\u{69}\u{64}\u{74}\u{68}\u{3d}\u{27}\u{31}\u{25}\u{27}\u{20}\u{63}\u{6c}\u{61}\u{73}\u{73}\u{3d}\u{27}"))
(assert (= x_22 (str.++ literal_19 x_6)))
(assert (= literal_21 "\u{27}\u{20}\u{73}\u{74}\u{79}\u{6c}\u{65}\u{3d}\u{27}\u{63}\u{75}\u{72}\u{73}\u{6f}\u{72}\u{3a}\u{68}\u{61}\u{6e}\u{64}\u{3b}\u{27}\u{3e}"))
(assert (= x_23 (str.++ x_20 literal_21)))
(assert (= literal_24 "\u{20}\u{73}\u{74}\u{79}\u{6c}\u{65}\u{3d}\u{77}\u{68}\u{69}\u{74}\u{65}\u{2d}\u{73}\u{70}\u{61}\u{63}\u{65}\u{3a}\u{6e}\u{6f}\u{77}\u{72}\u{61}\u{70}\u{27}\u{3e}"))
(assert (= x_26 (str.++ x_22 literal_24)))
(assert (= x_27 (str.++ x_23 x_8)))
(assert (= literal_25 "\u{3c}\u{2f}\u{74}\u{64}\u{3e}\u{0d}\u{0a}\u{3c}\u{74}\u{64}\u{20}\u{61}\u{6c}\u{69}\u{67}\u{6e}\u{3d}\u{27}\u{63}\u{65}\u{6e}\u{74}\u{65}\u{72}\u{27}\u{20}\u{77}\u{69}\u{64}\u{74}\u{68}\u{3d}\u{27}\u{31}\u{25}\u{27}\u{20}\u{63}\u{6c}\u{61}\u{73}\u{73}\u{3d}\u{27}"))
(assert (= x_28 (str.++ literal_25 x_6)))
(assert (= x_32 (str.++ x_27 x_26)))
(assert (= literal_33 "\u{20}\u{73}\u{74}\u{79}\u{6c}\u{65}\u{3d}\u{77}\u{68}\u{69}\u{74}\u{65}\u{2d}\u{73}\u{70}\u{61}\u{63}\u{65}\u{3a}\u{6e}\u{6f}\u{77}\u{72}\u{61}\u{70}\u{27}\u{3e}\u{5c}\u{6e}"))
(assert (= x_34 (str.++ x_28 literal_33)))
(assert (= x_31 epsilon))
(assert (= x_35 (str.++ x_32 x_31)))
(assert (= x_36 (str.++ x_35 x_34)))
(assert (str.in_re x_36 (re.++ (re.* re.allchar) (re.++ (str.to_re "\u{5c}\u{3c}\u{53}\u{43}\u{52}\u{49}\u{50}\u{54}") (re.* re.allchar)))))
(check-sat)
(exit)
